NAME : 0
COMMENT : CVRP Instance
TYPE : CVRP
DIMENSION : 501
EDGE_WEIGHT_TYPE : EUC_2D
CAPACITY : 120
NODE_COORD_SECTION
1	259.0	446.0
2	465.0	501.0
3	610.0	842.0
4	605.0	355.0
5	381.0	424.0
6	442.0	522.0
7	194.0	474.0
8	293.0	512.0
9	246.0	367.0
10	307.0	443.0
11	440.0	451.0
12	466.0	477.0
13	222.0	407.0
14	503.0	697.0
15	175.0	529.0
16	308.0	404.0
17	444.0	469.0
18	157.0	501.0
19	449.0	466.0
20	589.0	522.0
21	697.0	1000.0
22	477.0	662.0
23	243.0	366.0
24	569.0	625.0
25	540.0	548.0
26	475.0	493.0
27	799.0	916.0
28	641.0	324.0
29	308.0	439.0
30	491.0	596.0
31	280.0	156.0
32	496.0	701.0
33	278.0	409.0
34	419.0	512.0
35	205.0	463.0
36	195.0	476.0
37	1000.0	902.0
38	417.0	521.0
39	241.0	497.0
40	429.0	518.0
41	491.0	653.0
42	255.0	7.0
43	168.0	552.0
44	414.0	289.0
45	252.0	411.0
46	573.0	847.0
47	475.0	647.0
48	467.0	489.0
49	189.0	801.0
50	426.0	546.0
51	338.0	562.0
52	361.0	470.0
53	312.0	465.0
54	480.0	524.0
55	294.0	0.0
56	245.0	55.0
57	552.0	893.0
58	304.0	436.0
59	145.0	574.0
60	264.0	279.0
61	559.0	892.0
62	581.0	424.0
63	240.0	474.0
64	445.0	543.0
65	290.0	466.0
66	146.0	548.0
67	495.0	589.0
68	195.0	524.0
69	676.0	644.0
70	191.0	525.0
71	414.0	520.0
72	190.0	488.0
73	282.0	445.0
74	377.0	449.0
75	448.0	549.0
76	310.0	450.0
77	251.0	274.0
78	264.0	443.0
79	289.0	462.0
80	496.0	691.0
81	186.0	478.0
82	553.0	417.0
83	207.0	482.0
84	782.0	931.0
85	591.0	855.0
86	253.0	266.0
87	557.0	556.0
88	445.0	460.0
89	359.0	471.0
90	422.0	535.0
91	364.0	459.0
92	495.0	624.0
93	641.0	605.0
94	622.0	849.0
95	414.0	523.0
96	288.0	465.0
97	252.0	454.0
98	187.0	333.0
99	611.0	876.0
100	132.0	343.0
101	244.0	25.0
102	433.0	519.0
103	613.0	844.0
104	495.0	611.0
105	327.0	422.0
106	240.0	99.0
107	416.0	537.0
108	256.0	490.0
109	533.0	833.0
110	455.0	481.0
111	281.0	374.0
112	481.0	660.0
113	248.0	475.0
114	283.0	540.0
115	543.0	818.0
116	819.0	912.0
117	496.0	625.0
118	101.0	646.0
119	312.0	458.0
120	223.0	394.0
121	275.0	91.0
122	108.0	578.0
123	242.0	493.0
124	435.0	460.0
125	642.0	594.0
126	809.0	911.0
127	188.0	265.0
128	250.0	29.0
129	498.0	700.0
130	426.0	519.0
131	481.0	635.0
132	825.0	916.0
133	819.0	957.0
134	453.0	725.0
135	475.0	623.0
136	823.0	910.0
137	382.0	413.0
138	556.0	448.0
139	640.0	505.0
140	447.0	531.0
141	411.0	416.0
142	382.0	383.0
143	362.0	457.0
144	225.0	78.0
145	436.0	538.0
146	454.0	459.0
147	375.0	437.0
148	523.0	664.0
149	185.0	434.0
150	265.0	321.0
151	612.0	428.0
152	472.0	512.0
153	488.0	624.0
154	385.0	421.0
155	275.0	415.0
156	444.0	456.0
157	489.0	638.0
158	64.0	790.0
159	200.0	369.0
160	234.0	38.0
161	322.0	458.0
162	212.0	466.0
163	497.0	709.0
164	579.0	223.0
165	318.0	444.0
166	254.0	302.0
167	184.0	345.0
168	290.0	181.0
169	478.0	518.0
170	469.0	506.0
171	381.0	449.0
172	433.0	535.0
173	285.0	450.0
174	491.0	609.0
175	158.0	547.0
176	417.0	296.0
177	422.0	533.0
178	404.0	420.0
179	232.0	456.0
180	490.0	660.0
181	594.0	437.0
182	484.0	619.0
183	140.0	482.0
184	100.0	662.0
185	283.0	395.0
186	560.0	782.0
187	440.0	540.0
188	162.0	485.0
189	97.0	120.0
190	424.0	516.0
191	308.0	455.0
192	566.0	590.0
193	260.0	286.0
194	599.0	869.0
195	209.0	285.0
196	289.0	395.0
197	481.0	663.0
198	321.0	547.0
199	526.0	653.0
200	427.0	556.0
201	430.0	563.0
202	303.0	39.0
203	635.0	508.0
204	400.0	414.0
205	314.0	395.0
206	312.0	545.0
207	485.0	621.0
208	595.0	678.0
209	432.0	535.0
210	521.0	682.0
211	627.0	310.0
212	579.0	718.0
213	471.0	673.0
214	641.0	615.0
215	491.0	654.0
216	550.0	806.0
217	182.0	429.0
218	450.0	473.0
219	283.0	452.0
220	478.0	667.0
221	144.0	508.0
222	496.0	582.0
223	216.0	505.0
224	474.0	649.0
225	457.0	484.0
226	658.0	665.0
227	296.0	374.0
228	768.0	934.0
229	459.0	475.0
230	292.0	452.0
231	370.0	432.0
232	164.0	543.0
233	64.0	800.0
234	353.0	468.0
235	359.0	471.0
236	405.0	412.0
237	344.0	70.0
238	316.0	351.0
239	244.0	63.0
240	409.0	420.0
241	550.0	625.0
242	490.0	572.0
243	347.0	74.0
244	529.0	832.0
245	465.0	485.0
246	0.0	524.0
247	313.0	520.0
248	540.0	555.0
249	455.0	460.0
250	491.0	641.0
251	308.0	447.0
252	617.0	838.0
253	299.0	439.0
254	221.0	401.0
255	301.0	443.0
256	484.0	498.0
257	520.0	398.0
258	505.0	596.0
259	410.0	526.0
260	519.0	671.0
261	446.0	457.0
262	466.0	518.0
263	638.0	600.0
264	541.0	560.0
265	451.0	463.0
266	201.0	283.0
267	142.0	565.0
268	207.0	502.0
269	49.0	568.0
270	126.0	506.0
271	489.0	706.0
272	264.0	317.0
273	482.0	494.0
274	293.0	447.0
275	461.0	487.0
276	584.0	861.0
277	840.0	930.0
278	380.0	438.0
279	258.0	544.0
280	482.0	664.0
281	160.0	437.0
282	611.0	497.0
283	304.0	439.0
284	491.0	666.0
285	455.0	503.0
286	269.0	301.0
287	495.0	730.0
288	575.0	899.0
289	144.0	515.0
290	402.0	405.0
291	532.0	800.0
292	826.0	913.0
293	421.0	513.0
294	545.0	825.0
295	675.0	424.0
296	449.0	463.0
297	281.0	518.0
298	55.0	819.0
299	588.0	632.0
300	300.0	439.0
301	498.0	708.0
302	345.0	488.0
303	177.0	422.0
304	378.0	427.0
305	546.0	440.0
306	221.0	906.0
307	366.0	451.0
308	472.0	636.0
309	320.0	459.0
310	494.0	711.0
311	501.0	592.0
312	476.0	526.0
313	498.0	629.0
314	561.0	905.0
315	294.0	170.0
316	483.0	628.0
317	489.0	736.0
318	222.0	70.0
319	466.0	512.0
320	447.0	541.0
321	487.0	623.0
322	485.0	595.0
323	255.0	461.0
324	148.0	505.0
325	797.0	915.0
326	217.0	967.0
327	826.0	922.0
328	435.0	533.0
329	251.0	517.0
330	346.0	501.0
331	473.0	651.0
332	488.0	618.0
333	500.0	598.0
334	475.0	493.0
335	661.0	289.0
336	271.0	541.0
337	297.0	525.0
338	161.0	529.0
339	211.0	397.0
340	317.0	331.0
341	595.0	349.0
342	512.0	411.0
343	247.0	355.0
344	337.0	486.0
345	493.0	712.0
346	435.0	535.0
347	490.0	601.0
348	184.0	486.0
349	267.0	84.0
350	477.0	511.0
351	522.0	658.0
352	787.0	889.0
353	487.0	612.0
354	170.0	483.0
355	494.0	622.0
356	579.0	407.0
357	248.0	43.0
358	677.0	291.0
359	235.0	81.0
360	491.0	584.0
361	299.0	525.0
362	473.0	626.0
363	646.0	644.0
364	123.0	476.0
365	423.0	539.0
366	166.0	524.0
367	301.0	41.0
368	506.0	592.0
369	353.0	33.0
370	467.0	493.0
371	232.0	356.0
372	603.0	882.0
373	295.0	27.0
374	613.0	403.0
375	183.0	499.0
376	477.0	662.0
377	563.0	788.0
378	438.0	397.0
379	592.0	380.0
380	443.0	543.0
381	430.0	534.0
382	449.0	544.0
383	307.0	349.0
384	603.0	515.0
385	605.0	478.0
386	539.0	667.0
387	647.0	316.0
388	261.0	314.0
389	265.0	70.0
390	189.0	465.0
391	187.0	476.0
392	488.0	503.0
393	364.0	472.0
394	349.0	64.0
395	455.0	473.0
396	283.0	448.0
397	498.0	590.0
398	479.0	634.0
399	488.0	657.0
400	475.0	422.0
401	247.0	484.0
402	298.0	3.0
403	377.0	447.0
404	258.0	450.0
405	70.0	847.0
406	531.0	643.0
407	485.0	604.0
408	465.0	422.0
409	815.0	851.0
410	563.0	612.0
411	245.0	348.0
412	819.0	887.0
413	452.0	485.0
414	486.0	643.0
415	256.0	442.0
416	300.0	380.0
417	638.0	594.0
418	564.0	659.0
419	566.0	555.0
420	602.0	380.0
421	437.0	532.0
422	503.0	375.0
423	301.0	520.0
424	312.0	516.0
425	676.0	641.0
426	434.0	534.0
427	801.0	918.0
428	198.0	497.0
429	633.0	588.0
430	385.0	379.0
431	622.0	307.0
432	226.0	452.0
433	64.0	466.0
434	468.0	502.0
435	234.0	387.0
436	579.0	201.0
437	241.0	403.0
438	556.0	799.0
439	429.0	532.0
440	596.0	350.0
441	302.0	452.0
442	826.0	961.0
443	504.0	610.0
444	764.0	952.0
445	453.0	502.0
446	506.0	604.0
447	475.0	513.0
448	166.0	406.0
449	157.0	348.0
450	580.0	686.0
451	318.0	355.0
452	448.0	476.0
453	491.0	578.0
454	419.0	531.0
455	232.0	389.0
456	665.0	286.0
457	481.0	642.0
458	274.0	414.0
459	239.0	350.0
460	361.0	466.0
461	212.0	462.0
462	426.0	544.0
463	494.0	633.0
464	202.0	382.0
465	199.0	467.0
466	252.0	472.0
467	428.0	535.0
468	315.0	464.0
469	277.0	422.0
470	584.0	761.0
471	505.0	627.0
472	439.0	536.0
473	566.0	554.0
474	637.0	515.0
475	201.0	457.0
476	205.0	522.0
477	483.0	621.0
478	201.0	454.0
479	426.0	569.0
480	318.0	443.0
481	246.0	426.0
482	249.0	431.0
483	835.0	936.0
484	263.0	447.0
485	447.0	547.0
486	365.0	483.0
487	624.0	871.0
488	409.0	514.0
489	516.0	451.0
490	261.0	444.0
491	544.0	817.0
492	139.0	522.0
493	482.0	634.0
494	551.0	650.0
495	436.0	533.0
496	283.0	396.0
497	598.0	854.0
498	502.0	426.0
499	193.0	473.0
500	225.0	517.0
501	332.0	428.0
DEMAND_SECTION
1	0
2	7
3	8
4	7
5	6
6	10
7	7
8	2
9	2
10	10
11	8
12	1
13	1
14	7
15	5
16	5
17	8
18	10
19	10
20	1
21	6
22	7
23	5
24	2
25	9
26	5
27	2
28	9
29	4
30	3
31	4
32	4
33	1
34	8
35	2
36	6
37	1
38	9
39	9
40	1
41	4
42	4
43	4
44	3
45	6
46	2
47	9
48	8
49	8
50	7
51	4
52	10
53	7
54	2
55	6
56	9
57	2
58	9
59	5
60	9
61	1
62	8
63	1
64	4
65	7
66	10
67	9
68	4
69	2
70	9
71	4
72	7
73	1
74	2
75	9
76	4
77	9
78	6
79	7
80	5
81	4
82	5
83	9
84	8
85	8
86	2
87	5
88	4
89	9
90	2
91	6
92	1
93	6
94	4
95	9
96	9
97	8
98	5
99	8
100	3
101	6
102	2
103	9
104	8
105	5
106	6
107	5
108	1
109	2
110	2
111	5
112	3
113	10
114	10
115	1
116	5
117	8
118	6
119	2
120	6
121	5
122	8
123	8
124	1
125	3
126	9
127	5
128	3
129	7
130	7
131	9
132	2
133	8
134	7
135	3
136	7
137	2
138	1
139	7
140	9
141	3
142	1
143	8
144	1
145	8
146	9
147	1
148	8
149	7
150	6
151	10
152	7
153	8
154	10
155	10
156	2
157	3
158	1
159	6
160	4
161	10
162	7
163	5
164	5
165	8
166	1
167	4
168	8
169	2
170	9
171	9
172	6
173	4
174	5
175	6
176	3
177	5
178	8
179	9
180	2
181	8
182	8
183	7
184	3
185	7
186	5
187	5
188	7
189	4
190	6
191	6
192	4
193	7
194	10
195	7
196	5
197	8
198	5
199	8
200	9
201	9
202	7
203	5
204	2
205	8
206	3
207	3
208	4
209	6
210	5
211	6
212	1
213	10
214	1
215	6
216	4
217	10
218	10
219	8
220	9
221	10
222	10
223	10
224	3
225	5
226	5
227	8
228	10
229	9
230	10
231	10
232	2
233	9
234	2
235	1
236	8
237	7
238	2
239	10
240	1
241	1
242	2
243	7
244	3
245	10
246	8
247	1
248	6
249	1
250	2
251	3
252	7
253	9
254	8
255	4
256	8
257	1
258	1
259	5
260	8
261	9
262	8
263	6
264	1
265	6
266	7
267	8
268	1
269	10
270	5
271	6
272	6
273	10
274	4
275	2
276	3
277	5
278	4
279	7
280	10
281	6
282	9
283	2
284	7
285	9
286	7
287	9
288	9
289	7
290	8
291	5
292	1
293	9
294	1
295	6
296	5
297	1
298	1
299	8
300	7
301	7
302	7
303	5
304	10
305	6
306	10
307	5
308	9
309	9
310	8
311	4
312	2
313	4
314	3
315	3
316	5
317	6
318	8
319	7
320	6
321	4
322	7
323	6
324	10
325	4
326	6
327	2
328	8
329	8
330	7
331	9
332	2
333	6
334	9
335	2
336	9
337	2
338	2
339	9
340	9
341	5
342	2
343	1
344	7
345	6
346	1
347	5
348	8
349	9
350	1
351	6
352	3
353	2
354	9
355	6
356	4
357	4
358	9
359	1
360	7
361	6
362	1
363	10
364	10
365	6
366	4
367	2
368	6
369	4
370	6
371	2
372	3
373	8
374	1
375	7
376	6
377	10
378	7
379	1
380	2
381	3
382	5
383	3
384	4
385	4
386	2
387	6
388	6
389	1
390	10
391	2
392	2
393	1
394	10
395	9
396	8
397	4
398	7
399	5
400	8
401	4
402	7
403	6
404	4
405	9
406	10
407	2
408	9
409	8
410	1
411	2
412	6
413	2
414	4
415	7
416	5
417	6
418	1
419	1
420	8
421	10
422	6
423	1
424	4
425	7
426	1
427	2
428	9
429	4
430	3
431	7
432	2
433	8
434	4
435	6
436	10
437	3
438	8
439	1
440	2
441	3
442	1
443	3
444	3
445	6
446	6
447	3
448	8
449	9
450	1
451	5
452	5
453	10
454	3
455	5
456	8
457	7
458	8
459	9
460	5
461	9
462	3
463	8
464	6
465	7
466	10
467	4
468	3
469	2
470	6
471	1
472	1
473	10
474	9
475	4
476	10
477	8
478	7
479	10
480	5
481	2
482	4
483	7
484	3
485	1
486	5
487	1
488	1
489	6
490	4
491	8
492	6
493	6
494	5
495	5
496	10
497	6
498	9
499	4
500	2
501	1
DEPOT_SECTION
1
-1
EOF
